
Gurobi 11.0.1 (win64) logging started Thu Mar 21 03:02:41 2024

Set parameter LogFile to value "C:\Projetos\Job_Rotation_Algorithms\Outputs\GurobiLogs\gurobi_log-output-21_hes-c210-CostaMirallesModel-NoExtraConstraint-2.log"
Gurobi Optimizer version 11.0.1 build v11.0.1rc0 (win64 - Windows 10.0 (19045.2))

CPU model: 11th Gen Intel(R) Core(TM) i7-1165G7 @ 2.80GHz, instruction set [SSE2|AVX|AVX2|AVX512]
Thread count: 4 physical cores, 8 logical processors, using up to 1 threads

WLS license 901039 - registered to Bitka Analytics
Optimize a model with 474 rows, 889 columns and 7253 nonzeros
Model fingerprint: 0x38449d9c
Variable types: 2 continuous, 887 integer (887 binary)
Coefficient statistics:
  Matrix range     [1e+00, 2e+02]
  Objective range  [1e+00, 1e+00]
  Bounds range     [1e+00, 4e+02]
  RHS range        [1e+00, 4e+02]
Presolve removed 127 rows and 81 columns
Presolve time: 0.05s
Presolved: 347 rows, 808 columns, 5025 nonzeros
Variable types: 0 continuous, 808 integer (807 binary)

Root relaxation: objective 5.600000e+01, 359 iterations, 0.00 seconds (0.00 work units)

    Nodes    |    Current Node    |     Objective Bounds      |     Work
 Expl Unexpl |  Obj  Depth IntInf | Incumbent    BestBd   Gap | It/Node Time

     0     0   56.00000    0   20          -   56.00000      -     -    0s
     0     0   56.00000    0  130          -   56.00000      -     -    0s
     0     0   56.00000    0  104          -   56.00000      -     -    0s
     0     0   56.00000    0   23          -   56.00000      -     -    0s
     0     0   56.00000    0   41          -   56.00000      -     -    0s
     0     0   56.00000    0   36          -   56.00000      -     -    0s
     0     0   56.00000    0   47          -   56.00000      -     -    0s
     0     0   56.00000    0   49          -   56.00000      -     -    0s
     0     0   56.00000    0   37          -   56.00000      -     -    0s
     0     2   56.00000    0   36          -   56.00000      -     -    0s
*  942   284              19      44.0000000   56.00000  27.3%  62.2    1s
H 1226   314                      45.0000000   56.00000  24.4%  80.6    4s
H 1232   293                      48.0000000   56.00000  16.7%  80.9    4s
  1368   252   56.00000   21   79   48.00000   56.00000  16.7%  91.2    5s
* 1635   140              27      50.0000000   56.00000  12.0%   105    6s
* 1647   120              38      51.0000000   56.00000  9.80%   105    6s
H 1788    51                      53.0000000   56.00000  5.66%   111    7s

Cutting planes:
  Cover: 14
  Clique: 16
  MIR: 2
  Flow cover: 5
  GUB cover: 5
  RLT: 1

Explored 1876 nodes (214770 simplex iterations) in 8.09 seconds (7.87 work units)
Thread count was 1 (of 8 available processors)

Solution count 6: 53 51 50 ... 44

Optimal solution found (tolerance 1.00e-03)
Best objective 5.300000000000e+01, best bound 5.300000000000e+01, gap 0.0000%
